NAME : rat575Preorder.5627.tour
COMMENT : Length = 5627
COMMENT : Found by LKH [Keld Helsgaun] Fri Apr 24 14:35:36 2020
TYPE : TOUR
DIMENSION : 575
TOUR_SECTION
1
2
3
4
5
6
7
30
8
9
10
11
34
35
13
12
14
15
17
18
19
20
21
22
23
46
45
44
43
42
41
40
16
39
38
37
36
59
58
57
33
32
31
53
54
55
56
80
79
78
77
76
75
98
97
96
119
120
121
144
143
142
164
165
166
167
145
168
169
170
171
172
173
150
149
127
148
147
146
122
124
123
99
100
101
125
126
103
102
104
81
82
60
61
62
63
64
65
87
86
85
84
83
106
105
129
130
128
151
152
153
154
178
156
155
133
132
131
108
107
109
110
88
89
90
66
67
68
69
92
115
138
114
91
113
112
111
134
135
136
158
159
137
161
160
183
184
207
206
229
205
204
181
182
157
180
179
203
202
201
177
176
175
174
196
197
221
198
199
200
222
224
223
246
247
248
249
225
226
227
228
230
253
252
251
250
272
271
270
292
269
268
267
245
244
243
220
219
218
241
242
265
266
290
289
288
287
286
262
263
264
240
239
238
237
236
213
214
215
216
217
195
194
193
192
191
190
189
188
187
212
211
210
233
232
256
234
235
258
259
260
261
283
306
284
285
309
310
311
312
313
336
337
338
339
317
316
315
314
291
293
294
295
318
296
297
273
274
275
276
299
298
321
322
345
344
320
319
343
342
366
368
367
390
391
413
389
412
411
388
410
387
409
408
407
406
429
428
427
449
426
425
424
423
445
444
443
467
466
490
491
469
470
468
446
447
448
471
472
473
450
451
452
475
474
497
498
499
500
478
501
502
503
526
504
505
481
480
479
457
456
455
454
477
476
453
430
431
432
433
434
435
436
414
437
460
459
458
482
483
506
529
528
527
549
550
551
552
575
574
573
572
571
570
569
568
545
546
547
548
525
524
523
522
521
520
544
542
543
567
566
565
564
563
540
517
541
518
519
496
495
494
493
516
492
514
515
538
539
562
561
560
559
558
556
555
554
553
530
531
532
533
534
557
535
536
537
513
512
489
488
511
487
510
509
508
507
485
484
461
462
463
486
464
465
442
441
440
439
438
415
416
417
418
419
396
420
421
422
399
398
397
375
376
377
400
401
402
403
404
405
382
384
385
386
363
364
365
341
340
362
361
360
383
359
381
380
379
378
354
355
356
357
358
335
334
333
332
331
308
307
330
305
328
329
353
352
351
374
373
372
395
394
393
392
369
370
371
350
327
326
349
348
347
346
323
324
325
300
301
302
303
304
281
282
257
280
279
278
277
255
254
231
208
209
186
185
162
163
140
139
141
118
95
117
116
94
93
71
70
47
48
49
72
73
74
51
50
52
29
28
27
26
25
24
-1
EOF
